min: c;

c = 3.22078079326525 * u4_t1_h1 + 3.75765761540747 * u4_t1_h2 + 2.85545848628859 * u4_t1_h3 + 2.79343617419534 * u4_t1_h4 + 2.79343617419534 * u4_t10_h4 + 3.98825692029618 * u4_t1_h5 + 3.98825692029618 * u4_t10_h5 + 4.0905262245137 * u4_t1_h6 + 4.0905262245137 * u4_t10_h6 + 3.66742830562569 * u4_t1_h7 + 3.66742830562569 * u4_t10_h7 + 5.26118945117036 * u4_t1_h8 + 5.26118945117036 * u4_t9_h8 + 5.26118945117036 * u4_t10_h8 + 4.56960798426267 * u4_t9_h9 + 4.56960798426267 * u4_t10_h9 + 4.99440760002073 * u4_t9_h10 + 4.99440760002073 * u4_t10_h10 + 3.50347431446777 * u4_t2_h11 + 3.50347431446777 * u4_t4_h11 + 3.50347431446777 * u4_t9_h11 + 3.50347431446777 * u4_t10_h11 + 6.10991893817869 * u4_t2_h12 + 6.10991893817869 * u4_t3_h12 + 6.10991893817869 * u4_t4_h12 + 6.10991893817869 * u4_t8_h12 + 6.10991893817869 * u4_t9_h12 + 6.10991893817869 * u4_t10_h12 + 4.52339764679289 * u4_t2_h13 + 4.52339764679289 * u4_t3_h13 + 4.52339764679289 * u4_t4_h13 + 4.52339764679289 * u4_t8_h13 + 4.52339764679289 * u4_t9_h13 + 5.75082019844879 * u4_t2_h14 + 5.75082019844879 * u4_t3_h14 + 5.75082019844879 * u4_t4_h14 + 5.75082019844879 * u4_t8_h14 + 5.75082019844879 * u4_t9_h14 + 6.09832972239459 * u4_t2_h15 + 6.09832972239459 * u4_t3_h15 + 6.09832972239459 * u4_t4_h15 + 6.09832972239459 * u4_t8_h15 + 6.09832972239459 * u4_t9_h15 + 5.82849458369282 * u4_t2_h16 + 5.82849458369282 * u4_t3_h16 + 5.82849458369282 * u4_t4_h16 + 5.82849458369282 * u4_t5_h16 + 5.82849458369282 * u4_t8_h16 + 5.82849458369282 * u4_t9_h16 + 6.48229431026069 * u4_t2_h17 + 6.48229431026069 * u4_t3_h17 + 6.48229431026069 * u4_t5_h17 + 6.48229431026069 * u4_t8_h17 + 6.48229431026069 * u4_t9_h17 + 6.67350352627062 * u4_t2_h18 + 6.67350352627062 * u4_t3_h18 + 6.67350352627062 * u4_t5_h18 + 6.67350352627062 * u4_t8_h18 + 6.67350352627062 * u4_t9_h18 + 6.0011654598552 * u4_t2_h19 + 6.0011654598552 * u4_t3_h19 + 6.0011654598552 * u4_t6_h19 + 6.0011654598552 * u4_t8_h19 + 6.0011654598552 * u4_t9_h19 + 5.62270811310521 * u4_t2_h20 + 5.62270811310521 * u4_t6_h20 + 5.62270811310521 * u4_t9_h20 + 5.67959736008211 * u4_t6_h21 + 5.67316369926387 * u4_t6_h22 + 5.67316369926387 * u4_t7_h22 + 5.30959600926692 * u4_t6_h23 + 5.30959600926692 * u4_t7_h23;
0 <= u4_t1_h1 <= 1;
0 <= u4_t1_h2 <= 1;
0 <= u4_t1_h3 <= 1;
0 <= u4_t1_h4 <= 1;
0 <= u4_t1_h5 <= 1;
0 <= u4_t1_h6 <= 1;
0 <= u4_t1_h7 <= 1;
0 <= u4_t1_h8 <= 1;
u4_t1_h1 + u4_t1_h2 + u4_t1_h3 + u4_t1_h4 + u4_t1_h5 + u4_t1_h6 + u4_t1_h7 + u4_t1_h8 = 1;
0 <= u4_t2_h11 <= 1;
0 <= u4_t2_h12 <= 1;
0 <= u4_t2_h13 <= 1;
0 <= u4_t2_h14 <= 1;
0 <= u4_t2_h15 <= 1;
0 <= u4_t2_h16 <= 1;
0 <= u4_t2_h17 <= 1;
0 <= u4_t2_h18 <= 1;
0 <= u4_t2_h19 <= 1;
0 <= u4_t2_h20 <= 1;
u4_t2_h11 + u4_t2_h12 + u4_t2_h13 + u4_t2_h14 + u4_t2_h15 + u4_t2_h16 + u4_t2_h17 + u4_t2_h18 + u4_t2_h19 + u4_t2_h20 = 2;
0 <= u4_t3_h12 <= 1;
0 <= u4_t3_h13 <= 1;
0 <= u4_t3_h14 <= 1;
0 <= u4_t3_h15 <= 1;
0 <= u4_t3_h16 <= 1;
0 <= u4_t3_h17 <= 1;
0 <= u4_t3_h18 <= 1;
0 <= u4_t3_h19 <= 1;
u4_t3_h12 + u4_t3_h13 + u4_t3_h14 + u4_t3_h15 + u4_t3_h16 + u4_t3_h17 + u4_t3_h18 + u4_t3_h19 = 3;
0 <= u4_t4_h11 <= 1;
0 <= u4_t4_h12 <= 1;
0 <= u4_t4_h13 <= 1;
0 <= u4_t4_h14 <= 1;
0 <= u4_t4_h15 <= 1;
0 <= u4_t4_h16 <= 1;
u4_t4_h11 + u4_t4_h12 + u4_t4_h13 + u4_t4_h14 + u4_t4_h15 + u4_t4_h16 = 3;
0 <= u4_t5_h16 <= 1;
0 <= u4_t5_h17 <= 1;
0 <= u4_t5_h18 <= 1;
u4_t5_h16 + u4_t5_h17 + u4_t5_h18 = 1;
0 <= u4_t6_h19 <= 1;
0 <= u4_t6_h20 <= 1;
0 <= u4_t6_h21 <= 1;
0 <= u4_t6_h22 <= 1;
0 <= u4_t6_h23 <= 1;
u4_t6_h19 + u4_t6_h20 + u4_t6_h21 + u4_t6_h22 + u4_t6_h23 = 3;
0 <= u4_t7_h22 <= 1;
0 <= u4_t7_h23 <= 1;
u4_t7_h22 + u4_t7_h23 = 1;
0 <= u4_t8_h12 <= 1;
0 <= u4_t8_h13 <= 1;
0 <= u4_t8_h14 <= 1;
0 <= u4_t8_h15 <= 1;
0 <= u4_t8_h16 <= 1;
0 <= u4_t8_h17 <= 1;
0 <= u4_t8_h18 <= 1;
0 <= u4_t8_h19 <= 1;
u4_t8_h12 + u4_t8_h13 + u4_t8_h14 + u4_t8_h15 + u4_t8_h16 + u4_t8_h17 + u4_t8_h18 + u4_t8_h19 = 2;
0 <= u4_t9_h8 <= 1;
0 <= u4_t9_h9 <= 1;
0 <= u4_t9_h10 <= 1;
0 <= u4_t9_h11 <= 1;
0 <= u4_t9_h12 <= 1;
0 <= u4_t9_h13 <= 1;
0 <= u4_t9_h14 <= 1;
0 <= u4_t9_h15 <= 1;
0 <= u4_t9_h16 <= 1;
0 <= u4_t9_h17 <= 1;
0 <= u4_t9_h18 <= 1;
0 <= u4_t9_h19 <= 1;
0 <= u4_t9_h20 <= 1;
u4_t9_h8 + u4_t9_h9 + u4_t9_h10 + u4_t9_h11 + u4_t9_h12 + u4_t9_h13 + u4_t9_h14 + u4_t9_h15 + u4_t9_h16 + u4_t9_h17 + u4_t9_h18 + u4_t9_h19 + u4_t9_h20 = 2;
0 <= u4_t10_h4 <= 1;
0 <= u4_t10_h5 <= 1;
0 <= u4_t10_h6 <= 1;
0 <= u4_t10_h7 <= 1;
0 <= u4_t10_h8 <= 1;
0 <= u4_t10_h9 <= 1;
0 <= u4_t10_h10 <= 1;
0 <= u4_t10_h11 <= 1;
0 <= u4_t10_h12 <= 1;
u4_t10_h4 + u4_t10_h5 + u4_t10_h6 + u4_t10_h7 + u4_t10_h8 + u4_t10_h9 + u4_t10_h10 + u4_t10_h11 + u4_t10_h12 = 2;
